(set-logic BV) (define-fun origCir ((n97 Bool) (n325 Bool) (n254 Bool) (n207 Bool) (i33 Bool)) Bool (xor (and (xor n325 (not (and n254 n207))) n97) i33)) (synth-fun skel ((n97 Bool) (n325 Bool) (n254 Bool) (n207 Bool) (i33 Bool)) Bool) (declare-var n97 Bool) (declare-var n325 Bool) (declare-var n254 Bool) (declare-var n207 Bool) (declare-var i33 Bool) (constraint (= (origCir n97 n325 n254 n207 i33) (skel n97 n325 n254 n207 i33))) (check-synth)
